40
1 0 10
2 1 5
3 1 9
3 2 8
4 1 7
4 3 9
5 0 2
5 2 12
5 3 1
5 4 1
6 0 8
6 1 1
6 2 12
6 3 2
6 5 11
7 2 3
7 3 12
7 4 9
7 5 9
8 0 12
8 1 10
8 3 6
8 4 7
8 5 2
8 6 11
8 7 10
9 0 4
9 4 2
9 5 6
9 7 7
10 0 10
10 1 9
10 2 8
10 4 10
11 0 8
11 2 12
11 3 11
11 5 6
11 6 2
11 7 8
11 9 4
11 10 1
12 1 4
12 2 6
12 3 11
12 4 8
12 6 6
12 9 11
13 0 6
13 1 7
13 3 8
13 4 8
13 5 6
13 8 6
13 10 3
14 1 11
14 2 11
14 3 9
14 4 6
14 5 6
14 6 10
14 7 4
14 9 5
14 11 10
14 12 7
15 0 2
15 1 2
15 2 3
15 4 10
15 5 9
15 10 11
15 13 12
15 14 10
16 2 2
16 3 7
16 4 8
16 6 3
16 7 5
16 10 5
16 14 8
17 0 6
17 4 3
17 6 7
17 12 5
17 14 6
18 0 10
18 1 9
18 2 10
18 3 6
18 6 11
18 8 12
18 9 5
18 13 6
19 2 2
19 3 9
19 4 11
19 7 10
19 11 12
19 13 1
19 16 2
20 0 5
20 3 3
20 4 9
20 7 7
20 8 11
20 9 5
20 11 11
20 13 4
20 15 3
20 16 2
20 17 12
21 2 2
21 3 6
21 5 3
21 6 1
21 8 8
21 10 8
21 11 9
21 12 11
21 13 11
21 15 9
21 16 4
21 17 12
21 20 1
22 0 8
22 3 9
22 4 11
22 5 6
22 6 8
22 12 1
22 13 9
22 17 5
22 18 1
22 19 7
22 21 7
23 4 2
23 8 9
23 10 10
23 11 5
23 13 9
23 16 5
23 17 10
23 21 12
23 22 6
24 0 12
24 1 4
24 2 6
24 4 4
24 5 12
24 6 7
24 8 10
24 9 3
24 11 1
24 12 1
24 15 11
24 17 2
24 18 10
24 21 2
24 23 3
25 2 6
25 6 8
25 7 10
25 8 9
25 10 2
25 11 9
25 13 4
25 15 10
25 17 11
25 21 3
25 22 4
25 23 12
25 24 10
26 0 1
26 3 3
26 7 4
26 8 5
26 10 10
26 14 7
26 23 2
26 24 5
26 25 11
27 0 6
27 2 11
27 4 2
27 5 9
27 8 5
27 13 4
27 15 2
27 16 10
27 22 6
27 23 1
27 24 5
27 25 8
28 0 9
28 1 10
28 3 11
28 4 6
28 5 5
28 7 12
28 8 8
28 9 1
28 12 5
28 13 4
28 16 9
28 18 8
28 19 6
28 20 7
28 21 11
28 23 4
28 26 8
29 3 9
29 4 12
29 7 8
29 12 8
29 13 4
29 16 3
29 18 2
29 19 2
29 21 1
29 28 1
30 1 11
30 3 9
30 4 11
30 9 3
30 15 10
30 17 8
30 18 10
30 21 6
30 22 9
30 23 12
30 26 5
30 27 2
30 28 7
30 29 10
31 2 7
31 4 8
31 7 12
31 8 10
31 9 11
31 12 4
31 13 12
31 14 9
31 16 9
31 17 1
31 19 5
31 20 4
31 21 3
31 26 9
31 27 12
31 30 9
32 0 6
32 2 8
32 3 12
32 4 5
32 6 5
32 8 4
32 10 8
32 11 7
32 12 4
32 14 2
32 15 5
32 16 10
32 20 9
32 24 9
32 25 1
32 28 4
32 29 8
32 31 4
33 5 8
33 6 9
33 7 8
33 9 4
33 13 7
33 16 12
33 17 7
33 20 8
33 22 9
33 24 4
33 26 12
33 29 9
34 1 3
34 3 12
34 4 5
34 6 11
34 8 2
34 10 4
34 11 3
34 13 3
34 15 2
34 16 1
34 18 7
34 19 6
34 20 1
34 21 7
34 22 9
34 24 2
34 25 6
34 26 11
34 28 2
34 30 6
34 32 6
34 33 2
35 1 3
35 2 9
35 4 5
35 9 7
35 10 8
35 12 9
35 13 1
35 14 8
35 18 11
35 21 2
35 22 12
35 24 7
35 27 2
35 28 7
35 34 3
36 4 6
36 5 6
36 6 7
36 7 11
36 8 4
36 12 9
36 13 7
36 17 1
36 24 1
36 27 11
36 30 11
36 31 8
36 33 2
36 35 7
37 0 1
37 3 6
37 4 1
37 7 8
37 9 8
37 14 9
37 18 11
37 24 4
37 26 6
37 27 9
37 28 6
37 29 11
37 32 9
37 33 12
37 34 3
38 0 6
38 1 7
38 2 5
38 7 2
38 8 10
38 9 5
38 11 4
38 13 9
38 14 2
38 15 10
38 17 5
38 18 4
38 22 10
38 23 6
38 24 9
38 26 10
38 30 9
38 33 2
38 36 2
39 0 8
39 1 3
39 4 6
39 7 10
39 10 11
39 11 11
39 13 12
39 14 1
39 15 10
39 18 11
39 20 6
39 22 1
39 23 10
39 27 7
39 29 12
39 31 4
39 34 6
39 37 4
39 38 6
